src/inputs/sm6.dat
data;

set J := 1 2 3 4 5 6 7 8 9 10;
set I := 1 2 3 4 5 6 7;

param p := 
    1 15
    2 81
    3 47
    4 71
    5 43
    6 40
    7 124
    8 157
    9 149
    10 19;

param r := 
    1 155
    2 140
    3 20
    4 156
    5 13
    6 179
    7 149
    8 19
    9 121
    10 8;

param T := 195;
param R := 189;
param M := 1000000;

end;